c WARNING: for repeatability, setting FPU to use double precision
d VARIABLES            62824        
d CONSTRAINTS          268297       
c ============================[ Problem Statistics ]=============================
c |                                                                             |
c |  Number of variables:         62824                                         |
c |  Number of clauses:          268297                                         |
c |  Parse time:                   0.04 s                                       |
c |                                                                             |
c ============================[ Search Statistics ]==============================
c | Conflicts |          ORIGINAL         |          LEARNT          | Progress |
c |           |    Vars  Clauses Literals |    Limit  Clauses Lit/Cl |          |
c ===============================================================================
c |       100 |   50243   232417   566060 |    85219      100     26 | 20.026 % |
c |       250 |   50243   232417   566060 |    93741      250     38 | 20.026 % |
c |       475 |   50243   232417   566060 |   103115      475     49 | 20.026 % |
c |       812 |   50243   232417   566060 |   113427      812     91 | 20.026 % |
c |      1318 |   50243   232417   566060 |   124769     1318    139 | 20.026 % |
c |      2077 |   50243   232417   566060 |   137246     2077    118 | 20.026 % |
c |      3216 |   50243   232417   566060 |   150971     3216    122 | 20.026 % |
c |      4924 |   50243   232417   566060 |   166068     4924    126 | 20.026 % |
c |      7486 |   50243   232417   566060 |   182675     7486    131 | 20.026 % |
c |     11330 |   50243   232417   566060 |   200943    11330    166 | 20.026 % |
c |     17096 |   50243   232417   566060 |   221037    17096    175 | 20.026 % |
c |     25745 |   50243   232417   566060 |   243141    25745    171 | 20.026 % |
c |     38719 |   50243   232417   566060 |   267455    38719    166 | 20.026 % |
c |     58180 |   50243   232417   566060 |   294201    58180    153 | 20.026 % |
c |     87372 |   50243   232417   566060 |   323621    87372    158 | 20.026 % |
c |    131161 |   50243   232417   566060 |   355983   131161    160 | 20.026 % |
c |    196845 |   50243   232417   566060 |   391581   196845    161 | 20.026 % |
c |    295371 |   50243   232417   566060 |   430739   295371    167 | 20.026 % |
c |    443160 |   50243   232417   566060 |   473813   443160    162 | 20.026 % |
c |    664843 |   50223   232317   565820 |   521195   184706    172 | 20.058 % |
c |    997368 |   50223   232317   565820 |   573314   517231    163 | 20.058 % |
c |   1496156 |   50223   232317   565820 |   630646   442508    184 | 20.058 % |
c |   2244338 |   50223   232317   565820 |   693710   576922    144 | 20.058 % |
c ===============================================================================
c restarts              : 5691
c conflicts             : 3220479        (1796 /sec)
c decisions             : 6790244        (0.00 % random) (3788 /sec)
c propagations          : 3693315976     (2060087 /sec)
c conflict literals     : 510062245      (40.86 % deleted)
d RESTARTS             5691
d FAILURES             3220479      
d NODES                6790244      
d BACKTRACKS           6790244      
d PROPAGATIONS         3693315976   
d NOGOODSIZE           158.38 
d MEMORY               709.00 
d TIME                 1792.8 

s UNKNOWN
